
n_res = 4;
rcap = [28, 31, 505, 516];
rtype = [1, 1, 2, 2];
n_tasks = 100;
modes =  [{1, 2, 3}, {4, 5, 6}, {7, 8, 9}, {10, 11, 12}, {13, 14, 15}, {16, 17, 18}, {19, 20, 21}, {22, 23, 24}, {25, 26, 27}, {28, 29, 30}, {31, 32, 33}, {34, 35, 36}, {37, 38, 39}, {40, 41, 42}, {43, 44, 45}, {46, 47, 48}, {49, 50, 51}, {52, 53, 54}, {55, 56, 57}, {58, 59, 60}, {61, 62, 63}, {64, 65, 66}, {67, 68, 69}, {70, 71, 72}, {73, 74, 75}, {76, 77, 78}, {79, 80, 81}, {82, 83, 84}, {85, 86, 87}, {88, 89, 90}, {91, 92, 93}, {94, 95, 96}, {97, 98, 99}, {100, 101, 102}, {103, 104, 105}, {106, 107, 108}, {109, 110, 111}, {112, 113, 114}, {115, 116, 117}, {118, 119, 120}, {121, 122, 123}, {124, 125, 126}, {127, 128, 129}, {130, 131, 132}, {133, 134, 135}, {136, 137, 138}, {139, 140, 141}, {142, 143, 144}, {145, 146, 147}, {148, 149, 150}, {151, 152, 153}, {154, 155, 156}, {157, 158, 159}, {160, 161, 162}, {163, 164, 165}, {166, 167, 168}, {169, 170, 171}, {172, 173, 174}, {175, 176, 177}, {178, 179, 180}, {181, 182, 183}, {184, 185, 186}, {187, 188, 189}, {190, 191, 192}, {193, 194, 195}, {196, 197, 198}, {199, 200, 201}, {202, 203, 204}, {205, 206, 207}, {208, 209, 210}, {211, 212, 213}, {214, 215, 216}, {217, 218, 219}, {220, 221, 222}, {223, 224, 225}, {226, 227, 228}, {229, 230, 231}, {232, 233, 234}, {235, 236, 237}, {238, 239, 240}, {241, 242, 243}, {244, 245, 246}, {247, 248, 249}, {250, 251, 252}, {253, 254, 255}, {256, 257, 258}, {259, 260, 261}, {262, 263, 264}, {265, 266, 267}, {268, 269, 270}, {271, 272, 273}, {274, 275, 276}, {277, 278, 279}, {280, 281, 282}, {283, 284, 285}, {286, 287, 288}, {289, 290, 291}, {292, 293, 294}, {295, 296, 297}, {298, 299, 300}];
succ =  [{24, 21, 18, 16, 12, 10, 4}, {26, 21, 13, 12, 9}, {32, 27, 26, 23, 21, 18, 9}, {27, 23, 20, 8}, {34, 33, 32, 28, 27, 25, 24, 23, 21, 19}, {33, 27, 25, 17, 12}, {35, 34, 33, 28, 27, 25, 17}, {32, 28, 9}, {34, 33, 31, 25, 17}, {38, 36, 35, 30, 28, 27, 25}, {36, 33, 31, 30, 24, 22}, {35, 31, 30, 28, 23}, {33, 30, 28, 27, 22}, {37, 33, 32, 30, 22}, {39, 38, 36, 30, 29, 27}, {36, 34, 25, 22}, {37, 36, 30, 22}, {31, 28, 25}, {37, 30, 22}, {41, 40, 39, 38, 36, 35}, {39, 38, 37, 30}, {43, 42, 39, 38, 29}, {42, 39, 38, 36, 29}, {50, 49, 48, 41, 40, 37, 35}, {44, 43, 41, 40, 39, 37}, {45, 38, 30}, {44, 40, 31}, {42, 29}, {51, 50, 49, 48, 47, 45, 44, 41, 40}, {50, 49, 47, 44, 43, 42, 41, 40}, {51, 50, 49, 48, 41, 37}, {51, 48, 41, 40, 36}, {49, 47, 45, 44, 42, 41, 40}, {51, 50, 49, 48, 45, 44, 41}, {57, 47, 45, 44, 43, 42}, {60, 53, 49, 47, 45}, {60, 47, 45, 42}, {65, 60, 58, 56, 54, 52, 48, 47}, {65, 62, 60, 56, 52, 50, 49, 48}, {68, 65, 60, 57, 55, 53, 46}, {68, 60, 55, 54, 53, 46}, {68, 65, 62, 56, 55, 54, 53, 52}, {68, 65, 62, 58, 56, 55, 51}, {68, 64, 62, 54, 53, 52}, {74, 65, 46}, {62, 59, 58, 56, 52}, {73, 69, 68, 67, 66, 62, 61, 59, 55}, {74, 73, 69, 67, 66, 64, 59, 57}, {73, 68, 66, 58, 57}, {80, 77, 74, 73, 69, 68, 66, 61, 59}, {80, 74, 69, 64, 61, 60, 59}, {80, 73, 70, 69, 67, 66, 63, 61}, {74, 61, 58}, {80, 77, 69, 59}, {85, 80, 79, 78, 77, 76, 74, 71, 63}, {73, 70, 69, 67, 66, 64}, {80, 77, 63, 61}, {80, 70, 69, 67, 63}, {79, 78, 76, 71, 70, 63}, {81, 79, 78, 70, 67, 66}, {87, 85, 83, 81, 79, 78, 76, 72, 71}, {87, 83, 81, 79, 78, 77, 76, 70}, {100, 90, 87, 83, 81, 75, 72}, {87, 85, 81, 76, 75}, {100, 89, 79, 78, 70}, {100, 99, 90, 87, 85, 83, 82, 75}, {90, 89, 85, 75, 72}, {99, 90, 89, 85, 82, 75}, {78, 76, 75}, {99, 92, 90, 85, 75}, {99, 89, 82, 75}, {99, 98, 97, 88, 84, 82}, {100, 98, 97, 92, 90, 88}, {98, 97, 95, 90, 88, 86}, {98, 97, 88, 86, 84}, {100, 99, 86, 82}, {99, 98, 95, 91, 89, 86}, {98, 88, 86, 84}, {97, 90, 88, 84}, {97, 88, 84}, {99, 98, 97, 91, 89}, {94, 92, 91}, {97, 96, 95, 93}, {95, 94, 91}, {95, 94, 91}, {96, 94, 93}, {98, 97, 94}, {96, 94}, {94, 93}, {91}, {93}, {95}, {}, {}, {}, {}, {}, {}, {}, {}];
n_opt = 300;
dur = [2, 4, 9, 6, 7, 9, 4, 8, 9, 7, 8, 9, 2, 9, 10, 3, 6, 8, 3, 8, 9, 1, 3, 4, 3, 5, 8, 3, 5, 6, 1, 3, 9, 4, 7, 10, 2, 6, 7, 1, 4, 5, 5, 6, 8, 3, 4, 7, 1, 6, 9, 1, 2, 10, 6, 8, 9, 1, 2, 7, 1, 5, 9, 1, 2, 10, 2, 6, 9, 2, 6, 7, 1, 2, 3, 2, 3, 7, 8, 9, 10, 1, 2, 8, 2, 3, 10, 4, 5, 6, 6, 7, 8, 3, 9, 10, 1, 2, 7, 1, 3, 6, 5, 6, 9, 7, 8, 9, 5, 7, 10, 2, 5, 6, 1, 2, 5, 2, 7, 9, 1, 3, 7, 3, 7, 8, 2, 5, 8, 5, 7, 9, 1, 3, 9, 2, 5, 7, 5, 6, 10, 1, 3, 5, 5, 6, 8, 1, 3, 6, 1, 6, 7, 3, 5, 7, 1, 4, 5, 1, 4, 5, 3, 4, 7, 2, 6, 7, 5, 7, 8, 3, 4, 5, 2, 8, 9, 2, 4, 10, 1, 3, 10, 5, 6, 9, 3, 6, 9, 1, 7, 9, 5, 6, 9, 8, 9, 10, 3, 8, 9, 2, 7, 8, 2, 6, 9, 6, 8, 9, 2, 9, 10, 2, 3, 4, 4, 6, 7, 6, 7, 9, 4, 8, 9, 1, 2, 7, 2, 3, 5, 1, 8, 9, 4, 5, 7, 6, 8, 10, 5, 6, 7, 1, 3, 8, 2, 4, 6, 4, 6, 8, 7, 8, 9, 1, 2, 9, 2, 7, 8, 1, 4, 9, 1, 4, 5, 1, 3, 6, 1, 6, 7, 3, 4, 8, 5, 7, 9, 5, 7, 8, 4, 5, 10, 5, 6, 8, 3, 6, 7, 5, 5, 6, 3, 5, 6, 2, 6, 8];
rreq = [|5, 4, 4, 4, 2, 2, 4, 3, 3, 1, 1, 1, 1, 1, 1, 4, 4, 4, 3, 3, 3, 5, 4, 3, 4, 2, 2, 5, 4, 4, 3, 3, 2, 4, 2, 1, 4, 3, 2, 3, 3, 3, 3, 1, 1, 5, 2, 1, 3, 3, 2, 4, 3, 3, 4, 3, 2, 5, 4, 3, 5, 3, 3, 3, 3, 2, 4, 2, 2, 3, 1, 1, 1, 1, 1, 3, 2, 2, 3, 3, 3, 1, 1, 1, 2, 2, 2, 5, 3, 3, 4, 4, 4, 3, 3, 1, 2, 1, 1, 4, 3, 2, 3, 3, 3, 3, 3, 3, 3, 2, 1, 4, 3, 2, 5, 2, 1, 1, 1, 1, 5, 4, 3, 4, 3, 1, 3, 1, 1, 2, 2, 1, 4, 3, 2, 4, 3, 3, 3, 3, 3, 5, 4, 4, 4, 3, 3, 5, 3, 2, 4, 3, 3, 3, 3, 2, 3, 3, 2, 4, 4, 4, 5, 5, 5, 1, 1, 1, 4, 2, 2, 3, 3, 2, 4, 2, 2, 2, 1, 1, 3, 2, 2, 4, 4, 4, 4, 4, 4, 2, 2, 2, 2, 1, 1, 5, 4, 4, 3, 3, 3, 3, 2, 2, 3, 2, 2, 3, 2, 2, 4, 4, 4, 3, 3, 3, 4, 3, 3, 4, 3, 3, 5, 4, 4, 3, 2, 2, 2, 2, 2, 3, 2, 1, 4, 4, 4, 5, 3, 2, 1, 1, 1, 4, 4, 3, 5, 3, 3, 3, 3, 3, 4, 3, 2, 3, 2, 2, 4, 3, 3, 3, 2, 2, 5, 4, 3, 3, 2, 2, 3, 2, 1, 4, 4, 4, 3, 2, 2, 1, 1, 1, 5, 4, 3, 1, 1, 1, 1, 1, 1, 2, 1, 1, 4, 3, 2, 5, 5, 5
 |3, 3, 3, 4, 3, 3, 4, 4, 4, 5, 5, 5, 5, 4, 3, 4, 3, 3, 4, 4, 4, 2, 1, 1, 2, 1, 1, 4, 3, 3, 4, 2, 1, 2, 2, 1, 5, 3, 3, 3, 2, 2, 3, 3, 3, 4, 4, 4, 5, 4, 3, 5, 4, 4, 4, 4, 4, 3, 2, 2, 3, 3, 2, 2, 2, 2, 4, 2, 1, 4, 2, 2, 3, 2, 1, 3, 3, 2, 3, 3, 3, 2, 1, 1, 2, 1, 1, 3, 2, 1, 3, 2, 1, 5, 3, 2, 5, 5, 5, 5, 5, 5, 1, 1, 1, 2, 2, 1, 2, 1, 1, 2, 1, 1, 3, 2, 2, 2, 1, 1, 4, 3, 3, 4, 3, 2, 5, 3, 2, 3, 3, 3, 2, 2, 1, 5, 3, 3, 5, 4, 3, 4, 4, 4, 3, 2, 2, 2, 2, 2, 4, 3, 1, 5, 2, 1, 1, 1, 1, 5, 3, 3, 1, 1, 1, 3, 2, 2, 4, 3, 3, 3, 2, 1, 4, 4, 4, 3, 3, 3, 5, 5, 5, 3, 3, 1, 3, 2, 2, 4, 3, 3, 4, 4, 4, 4, 3, 3, 1, 1, 1, 5, 4, 4, 4, 4, 3, 4, 4, 4, 4, 3, 3, 3, 3, 1, 3, 3, 3, 3, 3, 3, 4, 2, 2, 5, 3, 1, 4, 4, 4, 4, 4, 4, 1, 1, 1, 3, 2, 1, 5, 3, 3, 1, 1, 1, 4, 4, 4, 5, 5, 5, 3, 3, 3, 5, 5, 5, 4, 4, 4, 5, 5, 5, 4, 4, 4, 4, 4, 4, 4, 4, 4, 4, 3, 3, 3, 3, 2, 4, 4, 3, 4, 2, 2, 4, 3, 2, 1, 1, 1, 1, 1, 1, 1, 1, 1, 2, 2, 2
 |8, 6, 4, 4, 4, 3, 9, 7, 6, 2, 2, 2, 2, 1, 1, 9, 7, 7, 7, 4, 3, 5, 4, 4, 5, 3, 1, 8, 5, 2, 8, 6, 2, 6, 4, 4, 4, 3, 3, 9, 8, 8, 9, 8, 8, 9, 9, 9, 2, 1, 1, 5, 4, 4, 2, 1, 1, 8, 8, 8, 5, 3, 3, 8, 7, 6, 8, 7, 6, 7, 6, 6, 3, 2, 1, 8, 7, 4, 9, 7, 3, 5, 3, 3, 5, 4, 2, 6, 5, 2, 7, 7, 3, 7, 7, 7, 7, 5, 3, 7, 5, 5, 8, 7, 6, 2, 1, 1, 9, 4, 2, 4, 2, 2, 6, 3, 1, 9, 4, 3, 10, 10, 10, 8, 8, 6, 3, 3, 2, 5, 5, 5, 10, 8, 8, 4, 4, 2, 2, 2, 2, 6, 5, 4, 8, 8, 8, 6, 4, 3, 3, 3, 3, 8, 5, 4, 9, 6, 1, 7, 7, 6, 4, 3, 3, 8, 6, 4, 4, 4, 4, 9, 6, 5, 4, 4, 4, 7, 4, 4, 8, 5, 4, 9, 6, 4, 10, 9, 8, 7, 6, 4, 8, 8, 7, 8, 8, 8, 8, 7, 5, 7, 5, 3, 5, 4, 2, 8, 7, 5, 7, 7, 7, 8, 7, 5, 2, 2, 2, 5, 5, 3, 7, 7, 4, 7, 5, 3, 7, 4, 1, 5, 5, 5, 5, 3, 2, 8, 6, 4, 9, 7, 2, 4, 3, 2, 7, 6, 4, 9, 7, 3, 6, 6, 6, 3, 2, 1, 5, 4, 2, 6, 6, 6, 3, 2, 2, 6, 4, 4, 4, 3, 2, 8, 7, 5, 6, 6, 5, 4, 4, 2, 8, 4, 2, 3, 3, 2, 3, 1, 1, 6, 5, 5, 3, 3, 2, 6, 5, 5
 |5, 5, 1, 9, 9, 8, 9, 8, 6, 4, 3, 2, 5, 5, 5, 4, 2, 1, 5, 3, 1, 3, 2, 2, 9, 6, 5, 6, 5, 5, 2, 2, 2, 4, 3, 3, 8, 8, 6, 4, 3, 2, 3, 2, 1, 7, 7, 6, 2, 2, 2, 6, 6, 2, 7, 6, 6, 5, 4, 3, 7, 7, 7, 9, 9, 8, 9, 7, 7, 4, 3, 2, 5, 5, 5, 7, 7, 6, 8, 4, 3, 10, 9, 8, 4, 4, 2, 8, 3, 2, 5, 5, 1, 6, 5, 5, 7, 7, 6, 7, 4, 3, 9, 9, 9, 9, 9, 9, 7, 7, 7, 6, 5, 4, 8, 8, 8, 5, 5, 5, 8, 6, 3, 5, 5, 5, 5, 5, 5, 7, 6, 4, 7, 6, 4, 4, 3, 3, 8, 8, 4, 7, 5, 5, 5, 5, 4, 2, 2, 2, 7, 7, 6, 7, 4, 4, 3, 3, 3, 3, 2, 1, 7, 4, 3, 4, 3, 2, 9, 8, 7, 7, 6, 4, 7, 7, 6, 9, 9, 7, 6, 5, 4, 6, 5, 2, 7, 6, 4, 10, 9, 9, 10, 9, 9, 5, 6, 5, 2, 2, 2, 4, 2, 2, 2, 2, 2, 6, 6, 6, 6, 4, 3, 7, 6, 4, 7, 5, 2, 9, 7, 5, 7, 6, 5, 7, 6, 3, 9, 7, 7, 8, 6, 5, 4, 3, 3, 5, 4, 3, 8, 6, 4, 3, 2, 1, 4, 4, 4, 6, 6, 3, 6, 4, 3, 7, 6, 6, 8, 7, 7, 2, 2, 1, 5, 4, 4, 9, 8, 7, 6, 4, 4, 3, 3, 1, 4, 2, 1, 9, 7, 4, 6, 2, 2, 9, 8, 6, 4, 3, 2, 1, 2, 1, 7, 7, 7, 9, 8, 6|];